JulietBench/Juliet_Based_Patch_Bench/linux/CWE-189-Numeric-Errors/CVE_2010_3015_731eb1a03a8445cde2cb23ecfb3580c6fa7bb690/Resultext4_ext_get_blocks_Snippet_patch2EQ.smt2
; benchmark generated from python API
(set-info :status unknown)
(declare-fun R () (_ BitVec 32))
(declare-fun rdi () (_ BitVec 64))
(declare-fun rsi () (_ BitVec 64))
(assert
 (let (($x57 (= (_ bv50 32) R)))
 (let (($x63 (= (_ bv0 32) R)))
 (let ((?x6 ((_ extract 31 0) rdi)))
 (let ((?x8 ((_ extract 31 0) rsi)))
 (let (($x14 (bvult ?x8 ?x6)))
 (let (($x12 (and $x14 $x63)))
 (let (($x39 (bvuge ?x8 ?x6)))
 (let ((?x60 (bvadd ?x6 (_ bv50 32))))
 (let (($x390 (bvuge ?x8 ?x60)))
 (let (($x70 (and $x390 $x39 $x63)))
 (let ((?x67 (bvmul (_ bv4294967295 32) ?x8)))
 (let ((?x71 (bvadd (_ bv50 32) ?x6)))
 (let ((?x59 (bvadd ?x71 ?x67)))
 (let (($x66 (= R ?x59)))
 (let (($x73 (bvult ?x8 ?x60)))
 (let (($x62 (and $x73 $x39 $x66)))
 (let (($x9 (or $x62 $x70 $x12)))
 (and $x9 $x57)))))))))))))))))))
(check-sat)
